NAME : cluster_netgen
COMMENT : cl=5
TYPE : TSP
DIMENSION : 50
EDGE_WEIGHT_TYPE : EUC_2D
NODE_COORD_SECTION
1 552453 504268
2 552290 603071
3 477599 532042
4 531021 604356
5 548820 526794
6 487050 513353
7 569069 510566
8 566411 582983
9 527005 675103
10 584380 547250
11 338049 545418
12 359886 632553
13 345899 648885
14 291321 621737
15 272288 612083
16 324098 631277
17 321507 657896
18 259569 657153
19 348277 569728
20 291864 688603
21 869348 330052
22 882806 201448
23 891821 228148
24 968898 283185
25 919164 252691
26 811995 167343
27 885881 264943
28 952145 258744
29 904835 205820
30 971796 286001
31 109822 167773
32 40449 75753
33 101704 72953
34 64655 10072
35 103756 83436
36 68772 108919
37 33349 65467
38 77631 80276
39 66516 90544
40 98405 153241
41 693071 833583
42 630349 854717
43 635323 855159
44 636766 908626
45 654073 858079
46 705150 831480
47 688929 844716
48 693931 815406
49 676832 835367
50 676872 877590

EOF
